60
17 35
10 6
6 58
27 21
26 16
2 58
29 80
24 77
1 23
19 61
25 65
24 18
5 12
5 94
8 37
13 78
5 44
23 63
5 91
16 81
8 30
22 57
16 78
22 87
27 68
2 21
30 2
15 67
10 54
12 21
9 17
2 65
9 85
15 16
26 13
5 32
1 85
23 8
24 26
15 66
8 41
4 77
3 28
3 10
20 55
13 27
1 80
25 87
22 69
13 39
23 98
4 27
4 63
30 48
24 28
10 84
22 51
30 65
14 55
21 15
